unsat
(:max-memory         18.52
 :memory             18.43
 :nlsat-arith-var    3
 :nlsat-atoms        9
 :nlsat-bool-var     1
 :nlsat-clauses      7
 :nlsat-conflicts    3
 :nlsat-propagations 12
 :nlsat-stages       4
 :num-allocs         73078
 :rlimit-count       3567
 :time               0.01
 :total-time         0.02)
